RT is False
Default write of storage_offers_DA.csv just to have a file (but constraint should be inactive)
Reading model...
...model read.
creating competitive generators file...
...competitive generators recorded.
Loading data...
.. day-ahead data with real-time VRE data read.
Compiling instance...
...instance created.
Creating Offer Mitigation (model will solve as dispatch if TRUE)...
NOTE: storage offers will not be mitigated
...storage offer mitigation file created
Converting model to MPEC...
...converted
NOTE: initial MIP solve with only storage competitive to get feasible solution
Solving...

Welcome to IBM(R) ILOG(R) CPLEX(R) Interactive Optimizer 12.9.0.0
  with Simplex, Mixed Integer & Barrier Optimizers
5725-A06 5725-A29 5724-Y48 5724-Y49 5724-Y54 5724-Y55 5655-Y21
Copyright IBM Corp. 1988, 2019.  All Rights Reserved.

Type 'help' for a list of available commands.
Type 'help' followed by a command name for more
information on commands.

CPLEX> Logfile 'cplex.log' closed.
Logfile 'C:\Users\llavin\Desktop\test826\logs\tmpgb929orv.cplex.log' open.
CPLEX> New value for parallel optimization mode: -1
CPLEX> New value for emphasis for MIP optimization: 1
CPLEX> New value for mixed integer optimality gap tolerance: 0.01
CPLEX> New value for integrality tolerance: 1e-12
CPLEX> New value for deterministic time limit in ticks: 75000
CPLEX> Problem 'C:\Users\llavin\Desktop\test826\logs\tmpq30mdi8n.pyomo.lp' read.
Read time = 0.22 sec. (13.92 ticks)
CPLEX> Problem name         : C:\Users\llavin\Desktop\test826\logs\tmpq30mdi8n.pyomo.lp
Objective sense      : Maximize
Variables            :   53809  [Nneg: 1,  Box: 22004,  Free: 4464,
                                 Binary: 27340]
Objective nonzeros   :    9027
Linear constraints   :  123253  [Less: 41346,  Greater: 59096,  Equal: 22811]
  Nonzeros           :  293215
  RHS nonzeros       :   67489

Variables            : Min LB: -5000.000        Max UB: 1000000.       
Objective nonzeros   : Min   : 0.7833333        Max   : 2500.000       
Linear constraints   :
  Nonzeros           : Min   : 0.7833333        Max   : 1000000.       
  RHS nonzeros       : Min   : 0.7833333        Max   : 1000000.       
CPLEX> CPXPARAM_Parallel                                -1
CPXPARAM_Emphasis_MIP                            1
CPXPARAM_DetTimeLimit                            75000
CPXPARAM_MIP_Tolerances_MIPGap                   0.01
CPXPARAM_MIP_Tolerances_Integrality              9.9999999999999998e-13
Tried aggregator 4 times.
MIP Presolve eliminated 88767 rows and 19070 columns.
MIP Presolve added 3376 rows and 0 columns.
MIP Presolve modified 24769 coefficients.
Aggregator did 12979 substitutions.
Reduced MIP has 24883 rows, 21204 columns, and 71584 nonzeros.
Reduced MIP has 8382 binaries, 0 generals, 0 SOSs, and 0 indicators.
Presolve time = 0.33 sec. (195.22 ticks)
Probing fixed 411 vars, tightened 3939 bounds.
Probing time = 0.06 sec. (18.81 ticks)
Tried aggregator 2 times.
MIP Presolve eliminated 936 rows and 825 columns.
MIP Presolve modified 3029 coefficients.
Aggregator did 29 substitutions.
Reduced MIP has 23918 rows, 20350 columns, and 68785 nonzeros.
Reduced MIP has 7971 binaries, 0 generals, 0 SOSs, and 0 indicators.
Presolve time = 0.11 sec. (89.14 ticks)
Probing fixed 0 vars, tightened 225 bounds.
Probing time = 0.14 sec. (22.17 ticks)
Clique table members: 44853.
MIP emphasis: integer feasibility.
MIP search method: dynamic search.
Parallel mode: opportunistic, using up to 32 threads.
Root relaxation solution time = 0.47 sec. (716.99 ticks)

        Nodes                                         Cuts/
   Node  Left     Objective  IInf  Best Integer    Best Bound    ItCnt     Gap

      0     0     1453.6871   182                   1453.6871     6069         
      0    26    infeasible                         1453.6871     6158         
Elapsed time = 3.31 sec. (1963.62 ticks, tree = 0.02 MB, solutions = 0)
    592   178     1425.5331     1                   1453.5969     7377         
*   840+  160                         1430.1230     1453.5969             1.64%
   1296   192     1445.2276     1     1430.1230     1453.5969    16516    1.64%
   1873   345     1445.2276     1     1430.1230     1453.1607    17768    1.61%
   2528   573     1433.9286     1     1430.1230     1452.6990    20568    1.58%
   2862   667        cutoff           1430.1230     1452.2465    21499    1.55%
   3146   704     1445.2276     2     1430.1230     1452.2465    21839    1.55%
   3566   683        cutoff           1430.1230     1450.0801    23106    1.40%
   3793   747        cutoff           1430.1230     1450.0801    24517    1.40%

Cover cuts applied:  10
Implied bound cuts applied:  11
Gomory fractional cuts applied:  1

Root node processing (before b&c):
  Real time             =    2.45 sec. (1955.47 ticks)
Parallel b&c, 32 threads:
  Real time             =   11.50 sec. (2551.33 ticks)
  Sync time (average)   =    1.74 sec.
  Wait time (average)   =    0.00 sec.
                          ------------
Total (root+branch&cut) =   13.95 sec. (4506.79 ticks)

Solution pool: 1 solution saved.

MIP - Integer optimal, tolerance (0.01/1e-06):  Objective =  1.4301229874e+03
Current MIP best bound =  1.4441807322e+03 (gap = 14.0577, 0.98%)
Solution time =   13.98 sec.  Iterations = 24851  Nodes = 3916 (777)
Deterministic time = 4506.95 ticks  (322.27 ticks/sec)

CPLEX> Incumbent solution written to file 'C:\Users\llavin\Desktop\test826\logs\tmpht66kp1a.cplex.sol'.
CPLEX> NOTE: no warmstart specified for MIP iteration, default behavior is true
NOTE: resolving with all competitive generators using storage-only solution to warmstart
Solving...

Welcome to IBM(R) ILOG(R) CPLEX(R) Interactive Optimizer 12.9.0.0
  with Simplex, Mixed Integer & Barrier Optimizers
5725-A06 5725-A29 5724-Y48 5724-Y49 5724-Y54 5724-Y55 5655-Y21
Copyright IBM Corp. 1988, 2019.  All Rights Reserved.

Type 'help' for a list of available commands.
Type 'help' followed by a command name for more
information on commands.

CPLEX> Logfile 'cplex.log' closed.
Logfile 'C:\Users\llavin\Desktop\test826\logs\tmp1yh2_pv_.cplex.log' open.
CPLEX> New value for parallel optimization mode: -1
CPLEX> New value for emphasis for MIP optimization: 1
CPLEX> New value for mixed integer optimality gap tolerance: 0.01
CPLEX> New value for integrality tolerance: 1e-12
CPLEX> New value for deterministic time limit in ticks: 75000
CPLEX> Problem 'C:\Users\llavin\Desktop\test826\logs\tmpy5sg_r9j.pyomo.lp' read.
Read time = 0.22 sec. (13.94 ticks)
CPLEX> MIP start file 'C:\Users\llavin\Desktop\test826\logs\tmpyp4vp5oo.cplex.mst' read.
CPLEX> Problem name         : C:\Users\llavin\Desktop\test826\logs\tmpy5sg_r9j.pyomo.lp
Objective sense      : Maximize
Variables            :   54529  [Nneg: 1,  Box: 22724,  Free: 4464,
                                 Binary: 27340]
Objective nonzeros   :    9723
Linear constraints   :  123253  [Less: 41346,  Greater: 59096,  Equal: 22811]
  Nonzeros           :  293215
  RHS nonzeros       :   67489

Variables            : Min LB: -5000.000        Max UB: 1000000.       
Objective nonzeros   : Min   : 0.7833333        Max   : 2500.000       
Linear constraints   :
  Nonzeros           : Min   : 0.7833333        Max   : 1000000.       
  RHS nonzeros       : Min   : 0.7833333        Max   : 1000000.       
CPLEX> CPXPARAM_Parallel                                -1
CPXPARAM_Emphasis_MIP                            1
CPXPARAM_DetTimeLimit                            75000
CPXPARAM_MIP_Tolerances_MIPGap                   0.01
CPXPARAM_MIP_Tolerances_Integrality              9.9999999999999998e-13
Warning:  No solution found from 1 MIP starts.
Retaining values of one MIP start for possible repair.
Tried aggregator 4 times.
MIP Presolve eliminated 88767 rows and 19790 columns.
MIP Presolve added 3376 rows and 0 columns.
MIP Presolve modified 24769 coefficients.
Aggregator did 12979 substitutions.
Reduced MIP has 24883 rows, 21204 columns, and 71584 nonzeros.
Reduced MIP has 8382 binaries, 0 generals, 0 SOSs, and 0 indicators.
Presolve time = 0.33 sec. (195.64 ticks)
Probing fixed 411 vars, tightened 3939 bounds.
Probing time = 0.06 sec. (18.81 ticks)
Tried aggregator 2 times.
MIP Presolve eliminated 936 rows and 825 columns.
MIP Presolve modified 3029 coefficients.
Aggregator did 29 substitutions.
Reduced MIP has 23918 rows, 20350 columns, and 68785 nonzeros.
Reduced MIP has 7971 binaries, 0 generals, 0 SOSs, and 0 indicators.
Presolve time = 0.11 sec. (89.14 ticks)
Probing fixed 0 vars, tightened 225 bounds.
Probing time = 0.13 sec. (22.17 ticks)
Clique table members: 44853.
MIP emphasis: integer feasibility.
MIP search method: dynamic search.
Parallel mode: opportunistic, using up to 32 threads.
Root relaxation solution time = 0.48 sec. (713.97 ticks)

        Nodes                                         Cuts/
   Node  Left     Objective  IInf  Best Integer    Best Bound    ItCnt     Gap

      0     0    13915.1387   205                  13915.1387     6105         
      0     0    13915.1387    10                    Cuts: 39     6121         
      0     0    13915.1387    10                 Flowcuts: 3     6123         
Repair heuristic found nothing.
      0     7    infeasible                           Cuts: 2     6171         
Elapsed time = 3.72 sec. (1948.41 ticks, tree = 0.02 MB, solutions = 0)
    638   214    infeasible                        13875.3616    10309         
   1073   367   -99865.8431    35                  13875.3616    20752         
   1461   678    infeasible                        13875.3616    47089         
*  1737   825      integral     0    13759.2066    13875.3616    52934    0.84%
   1847   937  -107263.4920    45    13759.2066    13875.3616    56104    0.84%
   2108  1157    10161.2174   134    13759.2066    13875.3616    63825    0.84%
   2158  1155    13825.5426     6    13759.2066    13875.3616    65507    0.84%
   2161   855   -24190.0323   278    13759.2066    13875.3616    61006    0.84%

Clique cuts applied:  9
Cover cuts applied:  5
Implied bound cuts applied:  1
Flow cuts applied:  50
Gomory fractional cuts applied:  13

Root node processing (before b&c):
  Real time             =    2.72 sec. (1942.93 ticks)
Parallel b&c, 32 threads:
  Real time             =    6.80 sec. (1959.18 ticks)
  Sync time (average)   =    0.88 sec.
  Wait time (average)   =    0.00 sec.
                          ------------
Total (root+branch&cut) =    9.52 sec. (3902.11 ticks)

Solution pool: 1 solution saved.

MIP - Integer optimal, tolerance (0.01/1e-06):  Objective =  1.3759206577e+04
Current MIP best bound =  1.3875361610e+04 (gap = 116.155, 0.84%)
Solution time =    9.53 sec.  Iterations = 131344  Nodes = 2166 (235)
Deterministic time = 3902.26 ticks  (409.43 ticks/sec)

CPLEX> Incumbent solution written to file 'C:\Users\llavin\Desktop\test826\logs\tmp0t8aovpb.cplex.sol'.
CPLEX> Exporting results... 
